Cd4 Si2 O8
1.0
   0.0000000000000000    4.4092529999999996    4.4092529999999996
   4.4092529999999996    0.0000000000000000    4.4092529999999996
   4.4092529999999996    4.4092529999999996    0.0000000000000000
Cd Si O
4 2 8
direct
   0.6250000000000000    0.6250000000000000    0.1250000000000000 Cd
   0.6250000000000000    0.1250000000000000    0.6250000000000000 Cd
   0.6250000000000000    0.6250000000000000    0.6250000000000000 Cd
   0.1250000000000000    0.6250000000000000    0.6250000000000000 Cd
   0.0000000000000000    0.0000000000000000    0.0000000000000000 Si
   0.2500000000000000    0.2500000000000000    0.2500000000000000 Si
   0.8901239999999990    0.8901239999999990    0.3296290000000000 O
   0.9203709999999991    0.3598760000000000    0.3598760000000000 O
   0.3598760000000000    0.3598760000000000    0.9203709999999991 O
   0.8901239999999990    0.8901239999999990    0.8901239999999990 O
   0.3598760000000000    0.9203709999999991    0.3598760000000000 O
   0.3296290000000000    0.8901239999999990    0.8901239999999990 O
   0.3598760000000000    0.3598760000000000    0.3598760000000000 O
   0.8901239999999990    0.3296290000000000    0.8901239999999990 O
